generated by phonopy
   1.0
     9.5434000000000001    0.0000000000000000    0.0000000000000000
     0.0000000000000000    9.5434000000000001    0.0000000000000000
     0.0000000000000000    0.0000000000000000    9.2501999999999995
   Ga Mg Ta O
   1 7 16 48
Direct
  0.0000000000000000  0.0000000000000000  0.0000000000000000
  0.5000000000000000  0.0000000000000000  0.0000000000000000
  0.0000000000000000  0.5000000000000000  0.0000000000000000
  0.5000000000000000  0.5000000000000000  0.0000000000000000
  0.2500000000000000  0.2500000000000000  0.5000000000000000
  0.7500000000000000  0.2500000000000000  0.5000000000000000
  0.2500000000000000  0.7500000000000000  0.5000000000000000
  0.7500000000000000  0.7500000000000000  0.5000000000000000
  0.0000000000000000  0.0000000000000000  0.3320000000000000
  0.5000000000000000  0.0000000000000000  0.3320000000000000
  0.0000000000000000  0.5000000000000000  0.3320000000000000
  0.5000000000000000  0.5000000000000000  0.3320000000000000
  0.2500000000000000  0.2500000000000000  0.1680000000000000
  0.7500000000000000  0.2500000000000000  0.1680000000000000
  0.2500000000000000  0.7500000000000000  0.1680000000000000
  0.7500000000000000  0.7500000000000000  0.1680000000000000
  0.0000000000000000  0.0000000000000000  0.6680000000000000
  0.5000000000000000  0.0000000000000000  0.6680000000000000
  0.0000000000000000  0.5000000000000000  0.6680000000000000
  0.5000000000000000  0.5000000000000000  0.6680000000000000
  0.2500000000000000  0.2500000000000000  0.8320000000000000
  0.7500000000000000  0.2500000000000000  0.8320000000000000
  0.2500000000000000  0.7500000000000000  0.8320000000000000
  0.7500000000000000  0.7500000000000000  0.8320000000000000
  0.1554200000000000  0.1554200000000000  0.0000000000000000
  0.6554200000000000  0.1554200000000000  0.0000000000000000
  0.1554200000000000  0.6554200000000000  0.0000000000000000
  0.6554200000000000  0.6554200000000000  0.0000000000000000
  0.4054200000000000  0.0945800000000000  0.5000000000000000
  0.9054200000000000  0.0945800000000000  0.5000000000000000
  0.4054200000000000  0.5945800000000000  0.5000000000000000
  0.9054200000000000  0.5945800000000000  0.5000000000000000
  0.0945800000000000  0.4054200000000000  0.5000000000000000
  0.5945800000000000  0.4054200000000000  0.5000000000000000
  0.0945800000000000  0.9054200000000000  0.5000000000000000
  0.5945800000000000  0.9054200000000000  0.5000000000000000
  0.3445800000000000  0.3445800000000000  0.0000000000000000
  0.8445800000000000  0.3445800000000000  0.0000000000000000
  0.3445800000000000  0.8445800000000000  0.0000000000000000
  0.8445800000000000  0.8445800000000000  0.0000000000000000
  0.1487650000000000  0.1487650000000000  0.3239900000000000
  0.6487650000000000  0.1487650000000000  0.3239900000000000
  0.1487650000000000  0.6487650000000000  0.3239900000000000
  0.6487650000000000  0.6487650000000000  0.3239900000000000
  0.3987650000000000  0.1012350000000000  0.1760100000000000
  0.8987650000000000  0.1012350000000000  0.1760100000000000
  0.3987650000000000  0.6012350000000000  0.1760100000000000
  0.8987650000000000  0.6012350000000000  0.1760100000000000
  0.1012350000000000  0.3987650000000000  0.1760100000000000
  0.6012350000000000  0.3987650000000000  0.1760100000000000
  0.1012350000000000  0.8987650000000000  0.1760100000000000
  0.6012350000000000  0.8987650000000000  0.1760100000000000
  0.3512350000000000  0.3512350000000000  0.3239900000000000
  0.8512350000000000  0.3512350000000000  0.3239900000000000
  0.3512350000000000  0.8512350000000000  0.3239900000000000
  0.8512350000000000  0.8512350000000000  0.3239900000000000
  0.3512350000000000  0.3512350000000000  0.6760100000000000
  0.8512350000000000  0.3512350000000000  0.6760100000000000
  0.3512350000000000  0.8512350000000000  0.6760100000000000
  0.8512350000000000  0.8512350000000000  0.6760100000000000
  0.1012350000000000  0.3987650000000000  0.8239900000000000
  0.6012350000000000  0.3987650000000000  0.8239900000000000
  0.1012350000000000  0.8987650000000000  0.8239900000000000
  0.6012350000000000  0.8987650000000000  0.8239900000000000
  0.3987650000000000  0.1012350000000000  0.8239900000000000
  0.8987650000000000  0.1012350000000000  0.8239900000000000
  0.3987650000000000  0.6012350000000000  0.8239900000000000
  0.8987650000000000  0.6012350000000000  0.8239900000000000
  0.1487650000000000  0.1487650000000000  0.6760100000000000
  0.6487650000000000  0.1487650000000000  0.6760100000000000
  0.1487650000000000  0.6487650000000000  0.6760100000000000
  0.6487650000000000  0.6487650000000000  0.6760100000000000
