Automatic mesh
0      ! auto k-point generation scheme
Gamma  ! Monkhorst-pack mesh or Gamma-centered mesh
6 6 2  ! dimensions
0 0 0
