mg1 o6 ta2                              
   1.00000000000000     
     9.2501607857936499    0.0000000000000000    0.0000000000000000
     0.0000000000000000    6.7482416109121486    0.0000000000000000
     0.0000000000000000    0.0000000000000000    6.7482416109121486
   Mg   Ta   O 
     4     8    24
Direct
  0.0000000000000000  0.0000000000000000  0.0000000000000000
  0.4999999999619575  0.5000000000674305  0.0000000000000000
  0.0000000000000000  0.5000000000674305  0.5000000000674305
  0.4999999999619575  0.0000000000000000  0.5000000000674305
  0.3319961285598865  0.0000000000000000  0.0000000000000000
  0.6680038454953063  0.0000000000000000  0.0000000000000000
  0.8319961544992580  0.5000000000674305  0.0000000000000000
  0.1680038584677064  0.5000000000674305  0.0000000000000000
  0.3319961285598865  0.5000000000674305  0.5000000000674305
  0.6680038454953063  0.5000000000674305  0.5000000000674305
  0.8319961544992580  0.0000000000000000  0.5000000000674305
  0.1680038584677064  0.0000000000000000  0.5000000000674305
  0.0000000000000000  0.8108373890077800  0.5000000000674305
  0.0000000000000000  0.1891626109772346  0.5000000000674305
  0.4999999999619575  0.0000000000000000  0.8108373890077800
  0.4999999999619575  0.0000000000000000  0.1891626109772346
  0.0000000000000000  0.3108373890901959  0.0000000000000000
  0.0000000000000000  0.6891625752315491  0.0000000000000000
  0.4999999999619575  0.5000000000674305  0.3108373890901959
  0.4999999999619575  0.5000000000674305  0.6891625752315491
  0.3239939795961533  0.2975352675115488  0.0000000000000000
  0.6760059944590395  0.7024647324734659  0.0000000000000000
  0.3239939795961533  0.7024647324734659  0.0000000000000000
  0.6760059944590395  0.2975352675115488  0.0000000000000000
  0.8239940055355248  0.5000000000674305  0.2975352675115488
  0.1760060333001690  0.5000000000674305  0.7024647324734659
  0.8239940055355248  0.5000000000674305  0.7024647324734659
  0.1760060333001690  0.5000000000674305  0.2975352675115488
  0.3239939795961533  0.7975352317658704  0.5000000000674305
  0.6760059944590395  0.2024647147242433  0.5000000000674305
  0.3239939795961533  0.2024647147242433  0.5000000000674305
  0.6760059944590395  0.7975352317658704  0.5000000000674305
  0.8239940055355248  0.0000000000000000  0.7975352317658704
  0.1760060333001690  0.0000000000000000  0.2024647147242433
  0.8239940055355248  0.0000000000000000  0.2024647147242433
  0.1760060333001690  0.0000000000000000  0.7975352317658704
 
  0.00000000E+00  0.00000000E+00  0.00000000E+00
  0.00000000E+00  0.00000000E+00  0.00000000E+00
  0.00000000E+00  0.00000000E+00  0.00000000E+00
  0.00000000E+00  0.00000000E+00  0.00000000E+00
  0.00000000E+00  0.00000000E+00  0.00000000E+00
  0.00000000E+00  0.00000000E+00  0.00000000E+00
  0.00000000E+00  0.00000000E+00  0.00000000E+00
  0.00000000E+00  0.00000000E+00  0.00000000E+00
  0.00000000E+00  0.00000000E+00  0.00000000E+00
  0.00000000E+00  0.00000000E+00  0.00000000E+00
  0.00000000E+00  0.00000000E+00  0.00000000E+00
  0.00000000E+00  0.00000000E+00  0.00000000E+00
  0.00000000E+00  0.00000000E+00  0.00000000E+00
  0.00000000E+00  0.00000000E+00  0.00000000E+00
  0.00000000E+00  0.00000000E+00  0.00000000E+00
  0.00000000E+00  0.00000000E+00  0.00000000E+00
  0.00000000E+00  0.00000000E+00  0.00000000E+00
  0.00000000E+00  0.00000000E+00  0.00000000E+00
  0.00000000E+00  0.00000000E+00  0.00000000E+00
  0.00000000E+00  0.00000000E+00  0.00000000E+00
  0.00000000E+00  0.00000000E+00  0.00000000E+00
  0.00000000E+00  0.00000000E+00  0.00000000E+00
  0.00000000E+00  0.00000000E+00  0.00000000E+00
  0.00000000E+00  0.00000000E+00  0.00000000E+00
  0.00000000E+00  0.00000000E+00  0.00000000E+00
  0.00000000E+00  0.00000000E+00  0.00000000E+00
  0.00000000E+00  0.00000000E+00  0.00000000E+00
  0.00000000E+00  0.00000000E+00  0.00000000E+00
  0.00000000E+00  0.00000000E+00  0.00000000E+00
  0.00000000E+00  0.00000000E+00  0.00000000E+00
  0.00000000E+00  0.00000000E+00  0.00000000E+00
  0.00000000E+00  0.00000000E+00  0.00000000E+00
  0.00000000E+00  0.00000000E+00  0.00000000E+00
  0.00000000E+00  0.00000000E+00  0.00000000E+00
  0.00000000E+00  0.00000000E+00  0.00000000E+00
  0.00000000E+00  0.00000000E+00  0.00000000E+00
