mg1 o6 ta2                              
   1.00000000000000     
     9.2501281982954211    0.0000000000000000    0.0000000000000000
     0.0000000000000000    6.7481963198191188    0.0000000000000000
     0.0000000000000000    0.0000000000000000    6.7481963198191188
   Mg   Ta   O 
     4     8    24
Direct
  0.0000000000000000  0.0000000000000000  0.0000000000000000
  0.4999999999619575  0.5000000000674305  0.0000000000000000
  0.0000000000000000  0.5000000000674305  0.5000000000674305
  0.4999999999619575  0.0000000000000000  0.5000000000674305
  0.3319969276971335  0.0000000000000000  0.0000000000000000
  0.6680030463580593  0.0000000000000000  0.0000000000000000
  0.8319969536365051  0.5000000000674305  0.0000000000000000
  0.1680030593304593  0.5000000000674305  0.0000000000000000
  0.3319969276971335  0.5000000000674305  0.5000000000674305
  0.6680030463580593  0.5000000000674305  0.5000000000674305
  0.8319969536365051  0.0000000000000000  0.5000000000674305
  0.1680030593304593  0.0000000000000000  0.5000000000674305
  0.0000000000000000  0.8108347825371922  0.5000000000674305
  0.0000000000000000  0.1891652174478224  0.5000000000674305
  0.4999999999619575  0.0000000000000000  0.8108347825371922
  0.4999999999619575  0.0000000000000000  0.1891652174478224
  0.0000000000000000  0.3108347826196081  0.0000000000000000
  0.0000000000000000  0.6891651817021369  0.0000000000000000
  0.4999999999619575  0.5000000000674305  0.3108347826196081
  0.4999999999619575  0.5000000000674305  0.6891651817021369
  0.3239975864301314  0.2975370265786026  0.0000000000000000
  0.6760023876250614  0.7024629734064121  0.0000000000000000
  0.3239975864301314  0.7024629734064121  0.0000000000000000
  0.6760023876250614  0.2975370265786026  0.0000000000000000
  0.8239976123695030  0.5000000000674305  0.2975370265786026
  0.1760024264661908  0.5000000000674305  0.7024629734064121
  0.8239976123695030  0.5000000000674305  0.7024629734064121
  0.1760024264661908  0.5000000000674305  0.2975370265786026
  0.3239975864301314  0.7975369908329171  0.5000000000674305
  0.6760023876250614  0.2024629556571895  0.5000000000674305
  0.3239975864301314  0.2024629556571895  0.5000000000674305
  0.6760023876250614  0.7975369908329171  0.5000000000674305
  0.8239976123695030  0.0000000000000000  0.7975369908329171
  0.1760024264661908  0.0000000000000000  0.2024629556571895
  0.8239976123695030  0.0000000000000000  0.2024629556571895
  0.1760024264661908  0.0000000000000000  0.7975369908329171
 
  0.00000000E+00  0.00000000E+00  0.00000000E+00
  0.00000000E+00  0.00000000E+00  0.00000000E+00
  0.00000000E+00  0.00000000E+00  0.00000000E+00
  0.00000000E+00  0.00000000E+00  0.00000000E+00
  0.00000000E+00  0.00000000E+00  0.00000000E+00
  0.00000000E+00  0.00000000E+00  0.00000000E+00
  0.00000000E+00  0.00000000E+00  0.00000000E+00
  0.00000000E+00  0.00000000E+00  0.00000000E+00
  0.00000000E+00  0.00000000E+00  0.00000000E+00
  0.00000000E+00  0.00000000E+00  0.00000000E+00
  0.00000000E+00  0.00000000E+00  0.00000000E+00
  0.00000000E+00  0.00000000E+00  0.00000000E+00
  0.00000000E+00  0.00000000E+00  0.00000000E+00
  0.00000000E+00  0.00000000E+00  0.00000000E+00
  0.00000000E+00  0.00000000E+00  0.00000000E+00
  0.00000000E+00  0.00000000E+00  0.00000000E+00
  0.00000000E+00  0.00000000E+00  0.00000000E+00
  0.00000000E+00  0.00000000E+00  0.00000000E+00
  0.00000000E+00  0.00000000E+00  0.00000000E+00
  0.00000000E+00  0.00000000E+00  0.00000000E+00
  0.00000000E+00  0.00000000E+00  0.00000000E+00
  0.00000000E+00  0.00000000E+00  0.00000000E+00
  0.00000000E+00  0.00000000E+00  0.00000000E+00
  0.00000000E+00  0.00000000E+00  0.00000000E+00
  0.00000000E+00  0.00000000E+00  0.00000000E+00
  0.00000000E+00  0.00000000E+00  0.00000000E+00
  0.00000000E+00  0.00000000E+00  0.00000000E+00
  0.00000000E+00  0.00000000E+00  0.00000000E+00
  0.00000000E+00  0.00000000E+00  0.00000000E+00
  0.00000000E+00  0.00000000E+00  0.00000000E+00
  0.00000000E+00  0.00000000E+00  0.00000000E+00
  0.00000000E+00  0.00000000E+00  0.00000000E+00
  0.00000000E+00  0.00000000E+00  0.00000000E+00
  0.00000000E+00  0.00000000E+00  0.00000000E+00
  0.00000000E+00  0.00000000E+00  0.00000000E+00
  0.00000000E+00  0.00000000E+00  0.00000000E+00
