MgTa2O6_symm_frlx-444-2.cif
1.0
     4.7717000000       0.0000000000       0.0000000000
     0.0000000000       4.7717000000       0.0000000000
     0.0000000000       0.0000000000       9.2502000000
Mg Ta O
2 4 12
Direct
     0.000000000     0.000000000     0.000000000  !Mg
     0.500000000     0.500000000     0.500000000  !Mg
     0.000000000     0.000000000     0.332000000  !Ta
     0.500000000     0.500000000     0.168000000  !Ta
     0.000000000     0.000000000     0.668000000  !Ta
     0.500000000     0.500000000     0.832000000  !Ta
     0.310840000     0.310840000     0.000000000  !O
     0.810840000     0.189160000     0.500000000  !O
     0.189160000     0.810840000     0.500000000  !O
     0.689160000     0.689160000     0.000000000  !O
     0.297530000     0.297530000     0.323990000  !O
     0.797530000     0.202470000     0.176010000  !O
     0.202470000     0.797530000     0.176010000  !O
     0.702470000     0.702470000     0.323990000  !O
     0.702470000     0.702470000     0.676010000  !O
     0.202470000     0.797530000     0.823990000  !O
     0.797530000     0.202470000     0.823990000  !O
     0.297530000     0.297530000     0.676010000  !O


! Created by the Bilbao Crystallographic Server
! http://www.cryst.ehu.es
! Date: 05/04/2019 02:39:16
