mg1 o6 ta2                              
   1.00000000000000     
     9.2831468940858812    0.0000000000000000    0.0000000000000000
     0.0000000000000000    6.7336256952145774    0.0000000000000000
     0.0000000000000000    0.0000000000000000    6.7336256952145774
   Mg   Ta   O 
     4     8    24
Direct
  0.0000000000000000  0.0000000000000000  0.0000000000000000
  0.4999999999619575  0.5000000000674305  0.0000000000000000
  0.0000000000000000  0.5000000000674305  0.5000000000674305
  0.4999999999619575 -0.0000000000000000  0.5000000000674305
  0.3322471921824254 -0.0000000000000000  0.0000000000000000
  0.6677527818727674 -0.0000000000000000 -0.0000000000000000
  0.8322472181217969  0.5000000000674305 -0.0000000000000000
  0.1677527948451674  0.5000000000674305  0.0000000000000000
  0.3322471921824254  0.5000000000674305  0.5000000000674305
  0.6677527818727674  0.5000000000674305  0.5000000000674305
  0.8322472181217969  0.0000000000000000  0.5000000000674305
  0.1677527948451674 -0.0000000000000000  0.5000000000674305
 -0.0000000000000000  0.8107240403976466  0.5000000000674305
 -0.0000000000000000  0.1892759595873681  0.5000000000674305
  0.4999999999619575 -0.0000000000000000  0.8107240403976466
  0.4999999999619575 -0.0000000000000000  0.1892759595873681
 -0.0000000000000000  0.3107240404800624 -0.0000000000000000
 -0.0000000000000000  0.6892759238416826 -0.0000000000000000
  0.4999999999619575  0.5000000000674305  0.3107240404800624
  0.4999999999619575  0.5000000000674305  0.6892759238416826
  0.3238705361347614  0.2977031992628677  0.0000000000000000
  0.6761294379204313  0.7022968007221470 -0.0000000000000000
  0.3238705361347614  0.7022968007221470  0.0000000000000000
  0.6761294379204313  0.2977031992628677 -0.0000000000000000
  0.8238705620741330  0.5000000000674305  0.2977031992628677
  0.1761294767615608  0.5000000000674305  0.7022968007221470
  0.8238705620741330  0.5000000000674305  0.7022968007221470
  0.1761294767615608  0.5000000000674305  0.2977031992628677
  0.3238705361347614  0.7977031635171822  0.5000000000674305
  0.6761294379204313  0.2022967829729244  0.5000000000674305
  0.3238705361347614  0.2022967829729244  0.5000000000674305
  0.6761294379204313  0.7977031635171822  0.5000000000674305
  0.8238705620741330  0.0000000000000000  0.7977031635171822
  0.1761294767615608 -0.0000000000000000  0.2022967829729244
  0.8238705620741330  0.0000000000000000  0.2022967829729244
  0.1761294767615608 -0.0000000000000000  0.7977031635171822
 
  0.00000000E+00  0.00000000E+00  0.00000000E+00
  0.00000000E+00  0.00000000E+00  0.00000000E+00
  0.00000000E+00  0.00000000E+00  0.00000000E+00
  0.00000000E+00  0.00000000E+00  0.00000000E+00
  0.00000000E+00  0.00000000E+00  0.00000000E+00
  0.00000000E+00  0.00000000E+00  0.00000000E+00
  0.00000000E+00  0.00000000E+00  0.00000000E+00
  0.00000000E+00  0.00000000E+00  0.00000000E+00
  0.00000000E+00  0.00000000E+00  0.00000000E+00
  0.00000000E+00  0.00000000E+00  0.00000000E+00
  0.00000000E+00  0.00000000E+00  0.00000000E+00
  0.00000000E+00  0.00000000E+00  0.00000000E+00
  0.00000000E+00  0.00000000E+00  0.00000000E+00
  0.00000000E+00  0.00000000E+00  0.00000000E+00
  0.00000000E+00  0.00000000E+00  0.00000000E+00
  0.00000000E+00  0.00000000E+00  0.00000000E+00
  0.00000000E+00  0.00000000E+00  0.00000000E+00
  0.00000000E+00  0.00000000E+00  0.00000000E+00
  0.00000000E+00  0.00000000E+00  0.00000000E+00
  0.00000000E+00  0.00000000E+00  0.00000000E+00
  0.00000000E+00  0.00000000E+00  0.00000000E+00
  0.00000000E+00  0.00000000E+00  0.00000000E+00
  0.00000000E+00  0.00000000E+00  0.00000000E+00
  0.00000000E+00  0.00000000E+00  0.00000000E+00
  0.00000000E+00  0.00000000E+00  0.00000000E+00
  0.00000000E+00  0.00000000E+00  0.00000000E+00
  0.00000000E+00  0.00000000E+00  0.00000000E+00
  0.00000000E+00  0.00000000E+00  0.00000000E+00
  0.00000000E+00  0.00000000E+00  0.00000000E+00
  0.00000000E+00  0.00000000E+00  0.00000000E+00
  0.00000000E+00  0.00000000E+00  0.00000000E+00
  0.00000000E+00  0.00000000E+00  0.00000000E+00
  0.00000000E+00  0.00000000E+00  0.00000000E+00
  0.00000000E+00  0.00000000E+00  0.00000000E+00
  0.00000000E+00  0.00000000E+00  0.00000000E+00
  0.00000000E+00  0.00000000E+00  0.00000000E+00
