mg1 o6 ta2                              
   1.00000000000000     
     9.2501901541923157    0.0000000000000000    0.0000000000000000
     0.0000000000000000    6.7482610825244231    0.0000000000000000
     0.0000000000000000    0.0000000000000000    6.7482610825244231
   Mg   Ta   O 
     4     8    24
Direct
  0.0000000000000000  0.0000000000000000  0.0000000000000000
  0.4999999999619575  0.5000000000674305  0.0000000000000000
  0.0000000000000000  0.5000000000674305  0.5000000000674305
  0.4999999999619575  0.0000000000000000  0.5000000000674305
  0.3319960874858197  0.0000000000000000  0.0000000000000000
  0.6680038865693732  0.0000000000000000  0.0000000000000000
  0.8319961134251912  0.5000000000674305  0.0000000000000000
  0.1680038995417732  0.5000000000674305  0.0000000000000000
  0.3319960874858197  0.5000000000674305  0.5000000000674305
  0.6680038865693732  0.5000000000674305  0.5000000000674305
  0.8319961134251912  0.0000000000000000  0.5000000000674305
  0.1680038995417732  0.0000000000000000  0.5000000000674305
  0.0000000000000000  0.8108367173242712  0.5000000000674305
  0.0000000000000000  0.1891632826607434  0.5000000000674305
  0.4999999999619575  0.0000000000000000  0.8108367173242712
  0.4999999999619575  0.0000000000000000  0.1891632826607434
  0.0000000000000000  0.3108367174066871  0.0000000000000000
  0.0000000000000000  0.6891632469150579  0.0000000000000000
  0.4999999999619575  0.5000000000674305  0.3108367174066871
  0.4999999999619575  0.5000000000674305  0.6891632469150579
  0.3239934874935813  0.2975345743605189  0.0000000000000000
  0.6760064865616116  0.7024654256244958  0.0000000000000000
  0.3239934874935813  0.7024654256244958  0.0000000000000000
  0.6760064865616116  0.2975345743605189  0.0000000000000000
  0.8239935134329528  0.5000000000674305  0.2975345743605189
  0.1760065254027410  0.5000000000674305  0.7024654256244958
  0.8239935134329528  0.5000000000674305  0.7024654256244958
  0.1760065254027410  0.5000000000674305  0.2975345743605189
  0.3239934874935813  0.7975345386148334  0.5000000000674305
  0.6760064865616116  0.2024654078752732  0.5000000000674305
  0.3239934874935813  0.2024654078752732  0.5000000000674305
  0.6760064865616116  0.7975345386148334  0.5000000000674305
  0.8239935134329528  0.0000000000000000  0.7975345386148334
  0.1760065254027410  0.0000000000000000  0.2024654078752732
  0.8239935134329528  0.0000000000000000  0.2024654078752732
  0.1760065254027410  0.0000000000000000  0.7975345386148334
 
  0.00000000E+00  0.00000000E+00  0.00000000E+00
  0.00000000E+00  0.00000000E+00  0.00000000E+00
  0.00000000E+00  0.00000000E+00  0.00000000E+00
  0.00000000E+00  0.00000000E+00  0.00000000E+00
  0.00000000E+00  0.00000000E+00  0.00000000E+00
  0.00000000E+00  0.00000000E+00  0.00000000E+00
  0.00000000E+00  0.00000000E+00  0.00000000E+00
  0.00000000E+00  0.00000000E+00  0.00000000E+00
  0.00000000E+00  0.00000000E+00  0.00000000E+00
  0.00000000E+00  0.00000000E+00  0.00000000E+00
  0.00000000E+00  0.00000000E+00  0.00000000E+00
  0.00000000E+00  0.00000000E+00  0.00000000E+00
  0.00000000E+00  0.00000000E+00  0.00000000E+00
  0.00000000E+00  0.00000000E+00  0.00000000E+00
  0.00000000E+00  0.00000000E+00  0.00000000E+00
  0.00000000E+00  0.00000000E+00  0.00000000E+00
  0.00000000E+00  0.00000000E+00  0.00000000E+00
  0.00000000E+00  0.00000000E+00  0.00000000E+00
  0.00000000E+00  0.00000000E+00  0.00000000E+00
  0.00000000E+00  0.00000000E+00  0.00000000E+00
  0.00000000E+00  0.00000000E+00  0.00000000E+00
  0.00000000E+00  0.00000000E+00  0.00000000E+00
  0.00000000E+00  0.00000000E+00  0.00000000E+00
  0.00000000E+00  0.00000000E+00  0.00000000E+00
  0.00000000E+00  0.00000000E+00  0.00000000E+00
  0.00000000E+00  0.00000000E+00  0.00000000E+00
  0.00000000E+00  0.00000000E+00  0.00000000E+00
  0.00000000E+00  0.00000000E+00  0.00000000E+00
  0.00000000E+00  0.00000000E+00  0.00000000E+00
  0.00000000E+00  0.00000000E+00  0.00000000E+00
  0.00000000E+00  0.00000000E+00  0.00000000E+00
  0.00000000E+00  0.00000000E+00  0.00000000E+00
  0.00000000E+00  0.00000000E+00  0.00000000E+00
  0.00000000E+00  0.00000000E+00  0.00000000E+00
  0.00000000E+00  0.00000000E+00  0.00000000E+00
  0.00000000E+00  0.00000000E+00  0.00000000E+00
