generated by phonopy
   1.0
    19.0868000000000002    0.0000000000000000    0.0000000000000000
     0.0000000000000000   19.0868000000000002    0.0000000000000000
     0.0000000000000000    0.0000000000000000   37.0007999999999981
Mg Ta O
 128  256  768
Direct
  0.0000000000000000  0.0000000000000000  0.0000000000000000
  0.2500000000000000  0.0000000000000000  0.0000000000000000
  0.5000000000000000  0.0000000000000000  0.0000000000000000
  0.7500000000000000  0.0000000000000000  0.0000000000000000
  0.0000000000000000  0.2500000000000000  0.0000000000000000
  0.2500000000000000  0.2500000000000000  0.0000000000000000
  0.5000000000000000  0.2500000000000000  0.0000000000000000
  0.7500000000000000  0.2500000000000000  0.0000000000000000
  0.0000000000000000  0.5000000000000000  0.0000000000000000
  0.2500000000000000  0.5000000000000000  0.0000000000000000
  0.5000000000000000  0.5000000000000000  0.0000000000000000
  0.7500000000000000  0.5000000000000000  0.0000000000000000
  0.0000000000000000  0.7500000000000000  0.0000000000000000
  0.2500000000000000  0.7500000000000000  0.0000000000000000
  0.5000000000000000  0.7500000000000000  0.0000000000000000
  0.7500000000000000  0.7500000000000000  0.0000000000000000
  0.0000000000000000  0.0000000000000000  0.2500000000000000
  0.2500000000000000  0.0000000000000000  0.2500000000000000
  0.5000000000000000  0.0000000000000000  0.2500000000000000
  0.7500000000000000  0.0000000000000000  0.2500000000000000
  0.0000000000000000  0.2500000000000000  0.2500000000000000
  0.2500000000000000  0.2500000000000000  0.2500000000000000
  0.5000000000000000  0.2500000000000000  0.2500000000000000
  0.7500000000000000  0.2500000000000000  0.2500000000000000
  0.0000000000000000  0.5000000000000000  0.2500000000000000
  0.2500000000000000  0.5000000000000000  0.2500000000000000
  0.5000000000000000  0.5000000000000000  0.2500000000000000
  0.7500000000000000  0.5000000000000000  0.2500000000000000
  0.0000000000000000  0.7500000000000000  0.2500000000000000
  0.2500000000000000  0.7500000000000000  0.2500000000000000
  0.5000000000000000  0.7500000000000000  0.2500000000000000
  0.7500000000000000  0.7500000000000000  0.2500000000000000
  0.0000000000000000  0.0000000000000000  0.5000000000000000
  0.2500000000000000  0.0000000000000000  0.5000000000000000
  0.5000000000000000  0.0000000000000000  0.5000000000000000
  0.7500000000000000  0.0000000000000000  0.5000000000000000
  0.0000000000000000  0.2500000000000000  0.5000000000000000
  0.2500000000000000  0.2500000000000000  0.5000000000000000
  0.5000000000000000  0.2500000000000000  0.5000000000000000
  0.7500000000000000  0.2500000000000000  0.5000000000000000
  0.0000000000000000  0.5000000000000000  0.5000000000000000
  0.2500000000000000  0.5000000000000000  0.5000000000000000
  0.5000000000000000  0.5000000000000000  0.5000000000000000
  0.7500000000000000  0.5000000000000000  0.5000000000000000
  0.0000000000000000  0.7500000000000000  0.5000000000000000
  0.2500000000000000  0.7500000000000000  0.5000000000000000
  0.5000000000000000  0.7500000000000000  0.5000000000000000
  0.7500000000000000  0.7500000000000000  0.5000000000000000
  0.0000000000000000  0.0000000000000000  0.7500000000000000
  0.2500000000000000  0.0000000000000000  0.7500000000000000
  0.5000000000000000  0.0000000000000000  0.7500000000000000
  0.7500000000000000  0.0000000000000000  0.7500000000000000
  0.0000000000000000  0.2500000000000000  0.7500000000000000
  0.2500000000000000  0.2500000000000000  0.7500000000000000
  0.5000000000000000  0.2500000000000000  0.7500000000000000
  0.7500000000000000  0.2500000000000000  0.7500000000000000
  0.0000000000000000  0.5000000000000000  0.7500000000000000
  0.2500000000000000  0.5000000000000000  0.7500000000000000
  0.5000000000000000  0.5000000000000000  0.7500000000000000
  0.7500000000000000  0.5000000000000000  0.7500000000000000
  0.0000000000000000  0.7500000000000000  0.7500000000000000
  0.2500000000000000  0.7500000000000000  0.7500000000000000
  0.5000000000000000  0.7500000000000000  0.7500000000000000
  0.7500000000000000  0.7500000000000000  0.7500000000000000
  0.1250000000000000  0.1250000000000000  0.1250000000000000
  0.3750000000000000  0.1250000000000000  0.1250000000000000
  0.6250000000000000  0.1250000000000000  0.1250000000000000
  0.8750000000000000  0.1250000000000000  0.1250000000000000
  0.1250000000000000  0.3750000000000000  0.1250000000000000
  0.3750000000000000  0.3750000000000000  0.1250000000000000
  0.6250000000000000  0.3750000000000000  0.1250000000000000
  0.8750000000000000  0.3750000000000000  0.1250000000000000
  0.1250000000000000  0.6250000000000000  0.1250000000000000
  0.3750000000000000  0.6250000000000000  0.1250000000000000
  0.6250000000000000  0.6250000000000000  0.1250000000000000
  0.8750000000000000  0.6250000000000000  0.1250000000000000
  0.1250000000000000  0.8750000000000000  0.1250000000000000
  0.3750000000000000  0.8750000000000000  0.1250000000000000
  0.6250000000000000  0.8750000000000000  0.1250000000000000
  0.8750000000000000  0.8750000000000000  0.1250000000000000
  0.1250000000000000  0.1250000000000000  0.3750000000000000
  0.3750000000000000  0.1250000000000000  0.3750000000000000
  0.6250000000000000  0.1250000000000000  0.3750000000000000
  0.8750000000000000  0.1250000000000000  0.3750000000000000
  0.1250000000000000  0.3750000000000000  0.3750000000000000
  0.3750000000000000  0.3750000000000000  0.3750000000000000
  0.6250000000000000  0.3750000000000000  0.3750000000000000
  0.8750000000000000  0.3750000000000000  0.3750000000000000
  0.1250000000000000  0.6250000000000000  0.3750000000000000
  0.3750000000000000  0.6250000000000000  0.3750000000000000
  0.6250000000000000  0.6250000000000000  0.3750000000000000
  0.8750000000000000  0.6250000000000000  0.3750000000000000
  0.1250000000000000  0.8750000000000000  0.3750000000000000
  0.3750000000000000  0.8750000000000000  0.3750000000000000
  0.6250000000000000  0.8750000000000000  0.3750000000000000
  0.8750000000000000  0.8750000000000000  0.3750000000000000
  0.1250000000000000  0.1250000000000000  0.6250000000000000
  0.3750000000000000  0.1250000000000000  0.6250000000000000
  0.6250000000000000  0.1250000000000000  0.6250000000000000
  0.8750000000000000  0.1250000000000000  0.6250000000000000
  0.1250000000000000  0.3750000000000000  0.6250000000000000
  0.3750000000000000  0.3750000000000000  0.6250000000000000
  0.6250000000000000  0.3750000000000000  0.6250000000000000
  0.8750000000000000  0.3750000000000000  0.6250000000000000
  0.1250000000000000  0.6250000000000000  0.6250000000000000
  0.3750000000000000  0.6250000000000000  0.6250000000000000
  0.6250000000000000  0.6250000000000000  0.6250000000000000
  0.8750000000000000  0.6250000000000000  0.6250000000000000
  0.1250000000000000  0.8750000000000000  0.6250000000000000
  0.3750000000000000  0.8750000000000000  0.6250000000000000
  0.6250000000000000  0.8750000000000000  0.6250000000000000
  0.8750000000000000  0.8750000000000000  0.6250000000000000
  0.1250000000000000  0.1250000000000000  0.8750000000000000
  0.3750000000000000  0.1250000000000000  0.8750000000000000
  0.6250000000000000  0.1250000000000000  0.8750000000000000
  0.8750000000000000  0.1250000000000000  0.8750000000000000
  0.1250000000000000  0.3750000000000000  0.8750000000000000
  0.3750000000000000  0.3750000000000000  0.8750000000000000
  0.6250000000000000  0.3750000000000000  0.8750000000000000
  0.8750000000000000  0.3750000000000000  0.8750000000000000
  0.1250000000000000  0.6250000000000000  0.8750000000000000
  0.3750000000000000  0.6250000000000000  0.8750000000000000
  0.6250000000000000  0.6250000000000000  0.8750000000000000
  0.8750000000000000  0.6250000000000000  0.8750000000000000
  0.1250000000000000  0.8750000000000000  0.8750000000000000
  0.3750000000000000  0.8750000000000000  0.8750000000000000
  0.6250000000000000  0.8750000000000000  0.8750000000000000
  0.8750000000000000  0.8750000000000000  0.8750000000000000
  0.0000000000000000  0.0000000000000000  0.0830000000000000
  0.2500000000000000  0.0000000000000000  0.0830000000000000
  0.5000000000000000  0.0000000000000000  0.0830000000000000
  0.7500000000000000  0.0000000000000000  0.0830000000000000
  0.0000000000000000  0.2500000000000000  0.0830000000000000
  0.2500000000000000  0.2500000000000000  0.0830000000000000
  0.5000000000000000  0.2500000000000000  0.0830000000000000
  0.7500000000000000  0.2500000000000000  0.0830000000000000
  0.0000000000000000  0.5000000000000000  0.0830000000000000
  0.2500000000000000  0.5000000000000000  0.0830000000000000
  0.5000000000000000  0.5000000000000000  0.0830000000000000
  0.7500000000000000  0.5000000000000000  0.0830000000000000
  0.0000000000000000  0.7500000000000000  0.0830000000000000
  0.2500000000000000  0.7500000000000000  0.0830000000000000
  0.5000000000000000  0.7500000000000000  0.0830000000000000
  0.7500000000000000  0.7500000000000000  0.0830000000000000
  0.0000000000000000  0.0000000000000000  0.3330000000000000
  0.2500000000000000  0.0000000000000000  0.3330000000000000
  0.5000000000000000  0.0000000000000000  0.3330000000000000
  0.7500000000000000  0.0000000000000000  0.3330000000000000
  0.0000000000000000  0.2500000000000000  0.3330000000000000
  0.2500000000000000  0.2500000000000000  0.3330000000000000
  0.5000000000000000  0.2500000000000000  0.3330000000000000
  0.7500000000000000  0.2500000000000000  0.3330000000000000
  0.0000000000000000  0.5000000000000000  0.3330000000000000
  0.2500000000000000  0.5000000000000000  0.3330000000000000
  0.5000000000000000  0.5000000000000000  0.3330000000000000
  0.7500000000000000  0.5000000000000000  0.3330000000000000
  0.0000000000000000  0.7500000000000000  0.3330000000000000
  0.2500000000000000  0.7500000000000000  0.3330000000000000
  0.5000000000000000  0.7500000000000000  0.3330000000000000
  0.7500000000000000  0.7500000000000000  0.3330000000000000
  0.0000000000000000  0.0000000000000000  0.5830000000000000
  0.2500000000000000  0.0000000000000000  0.5830000000000000
  0.5000000000000000  0.0000000000000000  0.5830000000000000
  0.7500000000000000  0.0000000000000000  0.5830000000000000
  0.0000000000000000  0.2500000000000000  0.5830000000000000
  0.2500000000000000  0.2500000000000000  0.5830000000000000
  0.5000000000000000  0.2500000000000000  0.5830000000000000
  0.7500000000000000  0.2500000000000000  0.5830000000000000
  0.0000000000000000  0.5000000000000000  0.5830000000000000
  0.2500000000000000  0.5000000000000000  0.5830000000000000
  0.5000000000000000  0.5000000000000000  0.5830000000000000
  0.7500000000000000  0.5000000000000000  0.5830000000000000
  0.0000000000000000  0.7500000000000000  0.5830000000000000
  0.2500000000000000  0.7500000000000000  0.5830000000000000
  0.5000000000000000  0.7500000000000000  0.5830000000000000
  0.7500000000000000  0.7500000000000000  0.5830000000000000
  0.0000000000000000  0.0000000000000000  0.8330000000000000
  0.2500000000000000  0.0000000000000000  0.8330000000000000
  0.5000000000000000  0.0000000000000000  0.8330000000000000
  0.7500000000000000  0.0000000000000000  0.8330000000000000
  0.0000000000000000  0.2500000000000000  0.8330000000000000
  0.2500000000000000  0.2500000000000000  0.8330000000000000
  0.5000000000000000  0.2500000000000000  0.8330000000000000
  0.7500000000000000  0.2500000000000000  0.8330000000000000
  0.0000000000000000  0.5000000000000000  0.8330000000000000
  0.2500000000000000  0.5000000000000000  0.8330000000000000
  0.5000000000000000  0.5000000000000000  0.8330000000000000
  0.7500000000000000  0.5000000000000000  0.8330000000000000
  0.0000000000000000  0.7500000000000000  0.8330000000000000
  0.2500000000000000  0.7500000000000000  0.8330000000000000
  0.5000000000000000  0.7500000000000000  0.8330000000000000
  0.7500000000000000  0.7500000000000000  0.8330000000000000
  0.1250000000000000  0.1250000000000000  0.0420000000000000
  0.3750000000000000  0.1250000000000000  0.0420000000000000
  0.6250000000000000  0.1250000000000000  0.0420000000000000
  0.8750000000000000  0.1250000000000000  0.0420000000000000
  0.1250000000000000  0.3750000000000000  0.0420000000000000
  0.3750000000000000  0.3750000000000000  0.0420000000000000
  0.6250000000000000  0.3750000000000000  0.0420000000000000
  0.8750000000000000  0.3750000000000000  0.0420000000000000
  0.1250000000000000  0.6250000000000000  0.0420000000000000
  0.3750000000000000  0.6250000000000000  0.0420000000000000
  0.6250000000000000  0.6250000000000000  0.0420000000000000
  0.8750000000000000  0.6250000000000000  0.0420000000000000
  0.1250000000000000  0.8750000000000000  0.0420000000000000
  0.3750000000000000  0.8750000000000000  0.0420000000000000
  0.6250000000000000  0.8750000000000000  0.0420000000000000
  0.8750000000000000  0.8750000000000000  0.0420000000000000
  0.1250000000000000  0.1250000000000000  0.2920000000000000
  0.3750000000000000  0.1250000000000000  0.2920000000000000
  0.6250000000000000  0.1250000000000000  0.2920000000000000
  0.8750000000000000  0.1250000000000000  0.2920000000000000
  0.1250000000000000  0.3750000000000000  0.2920000000000000
  0.3750000000000000  0.3750000000000000  0.2920000000000000
  0.6250000000000000  0.3750000000000000  0.2920000000000000
  0.8750000000000000  0.3750000000000000  0.2920000000000000
  0.1250000000000000  0.6250000000000000  0.2920000000000000
  0.3750000000000000  0.6250000000000000  0.2920000000000000
  0.6250000000000000  0.6250000000000000  0.2920000000000000
  0.8750000000000000  0.6250000000000000  0.2920000000000000
  0.1250000000000000  0.8750000000000000  0.2920000000000000
  0.3750000000000000  0.8750000000000000  0.2920000000000000
  0.6250000000000000  0.8750000000000000  0.2920000000000000
  0.8750000000000000  0.8750000000000000  0.2920000000000000
  0.1250000000000000  0.1250000000000000  0.5420000000000000
  0.3750000000000000  0.1250000000000000  0.5420000000000000
  0.6250000000000000  0.1250000000000000  0.5420000000000000
  0.8750000000000000  0.1250000000000000  0.5420000000000000
  0.1250000000000000  0.3750000000000000  0.5420000000000000
  0.3750000000000000  0.3750000000000000  0.5420000000000000
  0.6250000000000000  0.3750000000000000  0.5420000000000000
  0.8750000000000000  0.3750000000000000  0.5420000000000000
  0.1250000000000000  0.6250000000000000  0.5420000000000000
  0.3750000000000000  0.6250000000000000  0.5420000000000000
  0.6250000000000000  0.6250000000000000  0.5420000000000000
  0.8750000000000000  0.6250000000000000  0.5420000000000000
  0.1250000000000000  0.8750000000000000  0.5420000000000000
  0.3750000000000000  0.8750000000000000  0.5420000000000000
  0.6250000000000000  0.8750000000000000  0.5420000000000000
  0.8750000000000000  0.8750000000000000  0.5420000000000000
  0.1250000000000000  0.1250000000000000  0.7920000000000000
  0.3750000000000000  0.1250000000000000  0.7920000000000000
  0.6250000000000000  0.1250000000000000  0.7920000000000000
  0.8750000000000000  0.1250000000000000  0.7920000000000000
  0.1250000000000000  0.3750000000000000  0.7920000000000000
  0.3750000000000000  0.3750000000000000  0.7920000000000000
  0.6250000000000000  0.3750000000000000  0.7920000000000000
  0.8750000000000000  0.3750000000000000  0.7920000000000000
  0.1250000000000000  0.6250000000000000  0.7920000000000000
  0.3750000000000000  0.6250000000000000  0.7920000000000000
  0.6250000000000000  0.6250000000000000  0.7920000000000000
  0.8750000000000000  0.6250000000000000  0.7920000000000000
  0.1250000000000000  0.8750000000000000  0.7920000000000000
  0.3750000000000000  0.8750000000000000  0.7920000000000000
  0.6250000000000000  0.8750000000000000  0.7920000000000000
  0.8750000000000000  0.8750000000000000  0.7920000000000000
  0.0000000000000000  0.0000000000000000  0.1670000000000000
  0.2500000000000000  0.0000000000000000  0.1670000000000000
  0.5000000000000000  0.0000000000000000  0.1670000000000000
  0.7500000000000000  0.0000000000000000  0.1670000000000000
  0.0000000000000000  0.2500000000000000  0.1670000000000000
  0.2500000000000000  0.2500000000000000  0.1670000000000000
  0.5000000000000000  0.2500000000000000  0.1670000000000000
  0.7500000000000000  0.2500000000000000  0.1670000000000000
  0.0000000000000000  0.5000000000000000  0.1670000000000000
  0.2500000000000000  0.5000000000000000  0.1670000000000000
  0.5000000000000000  0.5000000000000000  0.1670000000000000
  0.7500000000000000  0.5000000000000000  0.1670000000000000
  0.0000000000000000  0.7500000000000000  0.1670000000000000
  0.2500000000000000  0.7500000000000000  0.1670000000000000
  0.5000000000000000  0.7500000000000000  0.1670000000000000
  0.7500000000000000  0.7500000000000000  0.1670000000000000
  0.0000000000000000  0.0000000000000000  0.4170000000000000
  0.2500000000000000  0.0000000000000000  0.4170000000000000
  0.5000000000000000  0.0000000000000000  0.4170000000000000
  0.7500000000000000  0.0000000000000000  0.4170000000000000
  0.0000000000000000  0.2500000000000000  0.4170000000000000
  0.2500000000000000  0.2500000000000000  0.4170000000000000
  0.5000000000000000  0.2500000000000000  0.4170000000000000
  0.7500000000000000  0.2500000000000000  0.4170000000000000
  0.0000000000000000  0.5000000000000000  0.4170000000000000
  0.2500000000000000  0.5000000000000000  0.4170000000000000
  0.5000000000000000  0.5000000000000000  0.4170000000000000
  0.7500000000000000  0.5000000000000000  0.4170000000000000
  0.0000000000000000  0.7500000000000000  0.4170000000000000
  0.2500000000000000  0.7500000000000000  0.4170000000000000
  0.5000000000000000  0.7500000000000000  0.4170000000000000
  0.7500000000000000  0.7500000000000000  0.4170000000000000
  0.0000000000000000  0.0000000000000000  0.6670000000000000
  0.2500000000000000  0.0000000000000000  0.6670000000000000
  0.5000000000000000  0.0000000000000000  0.6670000000000000
  0.7500000000000000  0.0000000000000000  0.6670000000000000
  0.0000000000000000  0.2500000000000000  0.6670000000000000
  0.2500000000000000  0.2500000000000000  0.6670000000000000
  0.5000000000000000  0.2500000000000000  0.6670000000000000
  0.7500000000000000  0.2500000000000000  0.6670000000000000
  0.0000000000000000  0.5000000000000000  0.6670000000000000
  0.2500000000000000  0.5000000000000000  0.6670000000000000
  0.5000000000000000  0.5000000000000000  0.6670000000000000
  0.7500000000000000  0.5000000000000000  0.6670000000000000
  0.0000000000000000  0.7500000000000000  0.6670000000000000
  0.2500000000000000  0.7500000000000000  0.6670000000000000
  0.5000000000000000  0.7500000000000000  0.6670000000000000
  0.7500000000000000  0.7500000000000000  0.6670000000000000
  0.0000000000000000  0.0000000000000000  0.9170000000000000
  0.2500000000000000  0.0000000000000000  0.9170000000000000
  0.5000000000000000  0.0000000000000000  0.9170000000000000
  0.7500000000000000  0.0000000000000000  0.9170000000000000
  0.0000000000000000  0.2500000000000000  0.9170000000000000
  0.2500000000000000  0.2500000000000000  0.9170000000000000
  0.5000000000000000  0.2500000000000000  0.9170000000000000
  0.7500000000000000  0.2500000000000000  0.9170000000000000
  0.0000000000000000  0.5000000000000000  0.9170000000000000
  0.2500000000000000  0.5000000000000000  0.9170000000000000
  0.5000000000000000  0.5000000000000000  0.9170000000000000
  0.7500000000000000  0.5000000000000000  0.9170000000000000
  0.0000000000000000  0.7500000000000000  0.9170000000000000
  0.2500000000000000  0.7500000000000000  0.9170000000000000
  0.5000000000000000  0.7500000000000000  0.9170000000000000
  0.7500000000000000  0.7500000000000000  0.9170000000000000
  0.1250000000000000  0.1250000000000000  0.2080000000000000
  0.3750000000000000  0.1250000000000000  0.2080000000000000
  0.6250000000000000  0.1250000000000000  0.2080000000000000
  0.8750000000000000  0.1250000000000000  0.2080000000000000
  0.1250000000000000  0.3750000000000000  0.2080000000000000
  0.3750000000000000  0.3750000000000000  0.2080000000000000
  0.6250000000000000  0.3750000000000000  0.2080000000000000
  0.8750000000000000  0.3750000000000000  0.2080000000000000
  0.1250000000000000  0.6250000000000000  0.2080000000000000
  0.3750000000000000  0.6250000000000000  0.2080000000000000
  0.6250000000000000  0.6250000000000000  0.2080000000000000
  0.8750000000000000  0.6250000000000000  0.2080000000000000
  0.1250000000000000  0.8750000000000000  0.2080000000000000
  0.3750000000000000  0.8750000000000000  0.2080000000000000
  0.6250000000000000  0.8750000000000000  0.2080000000000000
  0.8750000000000000  0.8750000000000000  0.2080000000000000
  0.1250000000000000  0.1250000000000000  0.4580000000000000
  0.3750000000000000  0.1250000000000000  0.4580000000000000
  0.6250000000000000  0.1250000000000000  0.4580000000000000
  0.8750000000000000  0.1250000000000000  0.4580000000000000
  0.1250000000000000  0.3750000000000000  0.4580000000000000
  0.3750000000000000  0.3750000000000000  0.4580000000000000
  0.6250000000000000  0.3750000000000000  0.4580000000000000
  0.8750000000000000  0.3750000000000000  0.4580000000000000
  0.1250000000000000  0.6250000000000000  0.4580000000000000
  0.3750000000000000  0.6250000000000000  0.4580000000000000
  0.6250000000000000  0.6250000000000000  0.4580000000000000
  0.8750000000000000  0.6250000000000000  0.4580000000000000
  0.1250000000000000  0.8750000000000000  0.4580000000000000
  0.3750000000000000  0.8750000000000000  0.4580000000000000
  0.6250000000000000  0.8750000000000000  0.4580000000000000
  0.8750000000000000  0.8750000000000000  0.4580000000000000
  0.1250000000000000  0.1250000000000000  0.7080000000000000
  0.3750000000000000  0.1250000000000000  0.7080000000000000
  0.6250000000000000  0.1250000000000000  0.7080000000000000
  0.8750000000000000  0.1250000000000000  0.7080000000000000
  0.1250000000000000  0.3750000000000000  0.7080000000000000
  0.3750000000000000  0.3750000000000000  0.7080000000000000
  0.6250000000000000  0.3750000000000000  0.7080000000000000
  0.8750000000000000  0.3750000000000000  0.7080000000000000
  0.1250000000000000  0.6250000000000000  0.7080000000000000
  0.3750000000000000  0.6250000000000000  0.7080000000000000
  0.6250000000000000  0.6250000000000000  0.7080000000000000
  0.8750000000000000  0.6250000000000000  0.7080000000000000
  0.1250000000000000  0.8750000000000000  0.7080000000000000
  0.3750000000000000  0.8750000000000000  0.7080000000000000
  0.6250000000000000  0.8750000000000000  0.7080000000000000
  0.8750000000000000  0.8750000000000000  0.7080000000000000
  0.1250000000000000  0.1250000000000000  0.9580000000000000
  0.3750000000000000  0.1250000000000000  0.9580000000000000
  0.6250000000000000  0.1250000000000000  0.9580000000000000
  0.8750000000000000  0.1250000000000000  0.9580000000000000
  0.1250000000000000  0.3750000000000000  0.9580000000000000
  0.3750000000000000  0.3750000000000000  0.9580000000000000
  0.6250000000000000  0.3750000000000000  0.9580000000000000
  0.8750000000000000  0.3750000000000000  0.9580000000000000
  0.1250000000000000  0.6250000000000000  0.9580000000000000
  0.3750000000000000  0.6250000000000000  0.9580000000000000
  0.6250000000000000  0.6250000000000000  0.9580000000000000
  0.8750000000000000  0.6250000000000000  0.9580000000000000
  0.1250000000000000  0.8750000000000000  0.9580000000000000
  0.3750000000000000  0.8750000000000000  0.9580000000000000
  0.6250000000000000  0.8750000000000000  0.9580000000000000
  0.8750000000000000  0.8750000000000000  0.9580000000000000
  0.0777100000000000  0.0777100000000000  0.0000000000000000
  0.3277100000000000  0.0777100000000000  0.0000000000000000
  0.5777099999999999  0.0777100000000000  0.0000000000000000
  0.8277099999999999  0.0777100000000000  0.0000000000000000
  0.0777100000000000  0.3277100000000000  0.0000000000000000
  0.3277100000000000  0.3277100000000000  0.0000000000000000
  0.5777099999999999  0.3277100000000000  0.0000000000000000
  0.8277099999999999  0.3277100000000000  0.0000000000000000
  0.0777100000000000  0.5777099999999999  0.0000000000000000
  0.3277100000000000  0.5777099999999999  0.0000000000000000
  0.5777099999999999  0.5777099999999999  0.0000000000000000
  0.8277099999999999  0.5777099999999999  0.0000000000000000
  0.0777100000000000  0.8277099999999999  0.0000000000000000
  0.3277100000000000  0.8277099999999999  0.0000000000000000
  0.5777099999999999  0.8277099999999999  0.0000000000000000
  0.8277099999999999  0.8277099999999999  0.0000000000000000
  0.0777100000000000  0.0777100000000000  0.2500000000000000
  0.3277100000000000  0.0777100000000000  0.2500000000000000
  0.5777099999999999  0.0777100000000000  0.2500000000000000
  0.8277099999999999  0.0777100000000000  0.2500000000000000
  0.0777100000000000  0.3277100000000000  0.2500000000000000
  0.3277100000000000  0.3277100000000000  0.2500000000000000
  0.5777099999999999  0.3277100000000000  0.2500000000000000
  0.8277099999999999  0.3277100000000000  0.2500000000000000
  0.0777100000000000  0.5777099999999999  0.2500000000000000
  0.3277100000000000  0.5777099999999999  0.2500000000000000
  0.5777099999999999  0.5777099999999999  0.2500000000000000
  0.8277099999999999  0.5777099999999999  0.2500000000000000
  0.0777100000000000  0.8277099999999999  0.2500000000000000
  0.3277100000000000  0.8277099999999999  0.2500000000000000
  0.5777099999999999  0.8277099999999999  0.2500000000000000
  0.8277099999999999  0.8277099999999999  0.2500000000000000
  0.0777100000000000  0.0777100000000000  0.5000000000000000
  0.3277100000000000  0.0777100000000000  0.5000000000000000
  0.5777099999999999  0.0777100000000000  0.5000000000000000
  0.8277099999999999  0.0777100000000000  0.5000000000000000
  0.0777100000000000  0.3277100000000000  0.5000000000000000
  0.3277100000000000  0.3277100000000000  0.5000000000000000
  0.5777099999999999  0.3277100000000000  0.5000000000000000
  0.8277099999999999  0.3277100000000000  0.5000000000000000
  0.0777100000000000  0.5777099999999999  0.5000000000000000
  0.3277100000000000  0.5777099999999999  0.5000000000000000
  0.5777099999999999  0.5777099999999999  0.5000000000000000
  0.8277099999999999  0.5777099999999999  0.5000000000000000
  0.0777100000000000  0.8277099999999999  0.5000000000000000
  0.3277100000000000  0.8277099999999999  0.5000000000000000
  0.5777099999999999  0.8277099999999999  0.5000000000000000
  0.8277099999999999  0.8277099999999999  0.5000000000000000
  0.0777100000000000  0.0777100000000000  0.7500000000000000
  0.3277100000000000  0.0777100000000000  0.7500000000000000
  0.5777099999999999  0.0777100000000000  0.7500000000000000
  0.8277099999999999  0.0777100000000000  0.7500000000000000
  0.0777100000000000  0.3277100000000000  0.7500000000000000
  0.3277100000000000  0.3277100000000000  0.7500000000000000
  0.5777099999999999  0.3277100000000000  0.7500000000000000
  0.8277099999999999  0.3277100000000000  0.7500000000000000
  0.0777100000000000  0.5777099999999999  0.7500000000000000
  0.3277100000000000  0.5777099999999999  0.7500000000000000
  0.5777099999999999  0.5777099999999999  0.7500000000000000
  0.8277099999999999  0.5777099999999999  0.7500000000000000
  0.0777100000000000  0.8277099999999999  0.7500000000000000
  0.3277100000000000  0.8277099999999999  0.7500000000000000
  0.5777099999999999  0.8277099999999999  0.7500000000000000
  0.8277099999999999  0.8277099999999999  0.7500000000000000
  0.2027100000000000  0.0472900000000000  0.1250000000000000
  0.4527100000000000  0.0472900000000000  0.1250000000000000
  0.7027099999999999  0.0472900000000000  0.1250000000000000
  0.9527099999999999  0.0472900000000000  0.1250000000000000
  0.2027100000000000  0.2972900000000000  0.1250000000000000
  0.4527100000000000  0.2972900000000000  0.1250000000000000
  0.7027099999999999  0.2972900000000000  0.1250000000000000
  0.9527099999999999  0.2972900000000000  0.1250000000000000
  0.2027100000000000  0.5472900000000001  0.1250000000000000
  0.4527100000000000  0.5472900000000001  0.1250000000000000
  0.7027099999999999  0.5472900000000001  0.1250000000000000
  0.9527099999999999  0.5472900000000001  0.1250000000000000
  0.2027100000000000  0.7972900000000001  0.1250000000000000
  0.4527100000000000  0.7972900000000001  0.1250000000000000
  0.7027099999999999  0.7972900000000001  0.1250000000000000
  0.9527099999999999  0.7972900000000001  0.1250000000000000
  0.2027100000000000  0.0472900000000000  0.3750000000000000
  0.4527100000000000  0.0472900000000000  0.3750000000000000
  0.7027099999999999  0.0472900000000000  0.3750000000000000
  0.9527099999999999  0.0472900000000000  0.3750000000000000
  0.2027100000000000  0.2972900000000000  0.3750000000000000
  0.4527100000000000  0.2972900000000000  0.3750000000000000
  0.7027099999999999  0.2972900000000000  0.3750000000000000
  0.9527099999999999  0.2972900000000000  0.3750000000000000
  0.2027100000000000  0.5472900000000001  0.3750000000000000
  0.4527100000000000  0.5472900000000001  0.3750000000000000
  0.7027099999999999  0.5472900000000001  0.3750000000000000
  0.9527099999999999  0.5472900000000001  0.3750000000000000
  0.2027100000000000  0.7972900000000001  0.3750000000000000
  0.4527100000000000  0.7972900000000001  0.3750000000000000
  0.7027099999999999  0.7972900000000001  0.3750000000000000
  0.9527099999999999  0.7972900000000001  0.3750000000000000
  0.2027100000000000  0.0472900000000000  0.6250000000000000
  0.4527100000000000  0.0472900000000000  0.6250000000000000
  0.7027099999999999  0.0472900000000000  0.6250000000000000
  0.9527099999999999  0.0472900000000000  0.6250000000000000
  0.2027100000000000  0.2972900000000000  0.6250000000000000
  0.4527100000000000  0.2972900000000000  0.6250000000000000
  0.7027099999999999  0.2972900000000000  0.6250000000000000