Server version 2019.03.05. Parameters used: MINDISTANCE=28.1 INCLUDEGAMMA=AUTO MINTOTALKPOINTS=56 KPPRA=2000 GAPDISTANCE=7.0. K-point grid has 72 total points. Actual minimum periodic distance is 28.56835434634925 Angstroms. Grid does not include gamma point. 
8
Fractional
0.12500000000000 0.00000000000000 0.16666666666667 8.0 ! 1
0.12500000000000 0.16666666666667 0.33333333333333 16.0 ! 2
0.12500000000000 0.33333333333333 0.50000000000000 8.0 ! 3
0.12500000000000 0.00000000000000 0.50000000000000 4.0 ! 4
0.37500000000000 0.00000000000000 0.16666666666667 8.0 ! 5
0.37500000000000 0.16666666666667 0.33333333333333 16.0 ! 6
0.37500000000000 0.33333333333333 0.50000000000000 8.0 ! 7
0.37500000000000 0.00000000000000 0.50000000000000 4.0 ! 8
Tetrahedra
90    0.0023148148148148147
6    1   1   1   1   
8    1   1   1   2   
4    1   1   1   5   
10    1   1   2   2   
4    1   1   2   4   
6    1   1   2   5   
2    1   1   2   6   
4    1   1   5   5   
2    1   1   5   6   
12    1   2   2   2   
4    1   2   2   4   
4    1   2   2   5   
8    1   2   2   6   
4    1   2   4   4   
2    1   2   4   5   
4    1   2   4   6   
2    1   2   4   8   
2    1   2   5   5   
8    1   2   5   6   
2    1   2   5   8   
4    1   2   6   6   
2    1   4   5   6   
2    1   4   6   8   
4    1   5   5   5   
6    1   5   5   6   
4    1   5   6   6   
2    1   5   6   8   
12    2   2   2   3   
8    2   2   2   4   
10    2   2   3   3   
4    2   2   3   4   
8    2   2   3   6   
4    2   2   3   7   
4    2   2   4   4   
4    2   2   4   6   
4    2   2   4   8   
4    2   2   5   6   
4    2   2   6   7   
4    2   2   6   8   
8    2   3   3   3   
4    2   3   3   4   
2    2   3   3   6   
6    2   3   3   7   
4    2   3   4   4   
4    2   3   4   6   
2    2   3   4   7   
2    2   3   4   8   
4    2   3   6   6   
8    2   3   6   7   
2    2   3   7   7   
2    2   3   7   8   
2    2   4   5   8   
4    2   4   6   6   
2    2   4   7   8   
2    2   5   5   6   
8    2   5   6   6   
4    2   5   6   8   
8    2   6   6   7   
4    2   6   6   8   
2    2   6   7   7   
4    2   6   7   8   
6    3   3   3   3   
4    3   3   3   7   
2    3   3   6   7   
4    3   3   7   7   
2    3   4   6   7   
2    3   4   6   8   
4    3   6   6   7   
6    3   6   7   7   
2    3   6   7   8   
4    3   7   7   7   
2    4   5   6   8   
4    4   6   6   8   
2    4   6   7   8   
6    5   5   5   5   
8    5   5   5   6   
10    5   5   6   6   
4    5   5   6   8   
12    5   6   6   6   
4    5   6   6   8   
4    5   6   8   8   
12    6   6   6   7   
8    6   6   6   8   
10    6   6   7   7   
4    6   6   7   8   
4    6   6   8   8   
8    6   7   7   7   
4    6   7   7   8   
4    6   7   8   8   
6    7   7   7   7   
