generated by phonopy
   1.0
     9.5434000000000001    0.0000000000000000    0.0000000000000000
     0.0000000000000000    9.5434000000000001    0.0000000000000000
     0.0000000000000000    0.0000000000000000   18.5003999999999991
Mg Ta O
  16   32   96
Direct
  0.0000000000000000  0.0000000000000000  0.0000000000000000
  0.5000000000000000  0.0000000000000000  0.0000000000000000
  0.0000000000000000  0.5000000000000000  0.0000000000000000
  0.5000000000000000  0.5000000000000000  0.0000000000000000
  0.0000000000000000  0.0000000000000000  0.5000000000000000
  0.5000000000000000  0.0000000000000000  0.5000000000000000
  0.0000000000000000  0.5000000000000000  0.5000000000000000
  0.5000000000000000  0.5000000000000000  0.5000000000000000
  0.2500000000000000  0.2500000000000000  0.2500000000000000
  0.7500000000000000  0.2500000000000000  0.2500000000000000
  0.2500000000000000  0.7500000000000000  0.2500000000000000
  0.7500000000000000  0.7500000000000000  0.2500000000000000
  0.2500000000000000  0.2500000000000000  0.7500000000000000
  0.7500000000000000  0.2500000000000000  0.7500000000000000
  0.2500000000000000  0.7500000000000000  0.7500000000000000
  0.7500000000000000  0.7500000000000000  0.7500000000000000
  0.0000000000000000  0.0000000000000000  0.1660000000000000
  0.5000000000000000  0.0000000000000000  0.1660000000000000
  0.0000000000000000  0.5000000000000000  0.1660000000000000
  0.5000000000000000  0.5000000000000000  0.1660000000000000
  0.0000000000000000  0.0000000000000000  0.6660000000000000
  0.5000000000000000  0.0000000000000000  0.6660000000000000
  0.0000000000000000  0.5000000000000000  0.6660000000000000
  0.5000000000000000  0.5000000000000000  0.6660000000000000
  0.2500000000000000  0.2500000000000000  0.0840000000000000
  0.7500000000000000  0.2500000000000000  0.0840000000000000
  0.2500000000000000  0.7500000000000000  0.0840000000000000
  0.7500000000000000  0.7500000000000000  0.0840000000000000
  0.2500000000000000  0.2500000000000000  0.5840000000000000
  0.7500000000000000  0.2500000000000000  0.5840000000000000
  0.2500000000000000  0.7500000000000000  0.5840000000000000
  0.7500000000000000  0.7500000000000000  0.5840000000000000
  0.0000000000000000  0.0000000000000000  0.3340000000000000
  0.5000000000000000  0.0000000000000000  0.3340000000000000
  0.0000000000000000  0.5000000000000000  0.3340000000000000
  0.5000000000000000  0.5000000000000000  0.3340000000000000
  0.0000000000000000  0.0000000000000000  0.8340000000000001
  0.5000000000000000  0.0000000000000000  0.8340000000000001
  0.0000000000000000  0.5000000000000000  0.8340000000000001
  0.5000000000000000  0.5000000000000000  0.8340000000000001
  0.2500000000000000  0.2500000000000000  0.4160000000000000
  0.7500000000000000  0.2500000000000000  0.4160000000000000
  0.2500000000000000  0.7500000000000000  0.4160000000000000
  0.7500000000000000  0.7500000000000000  0.4160000000000000
  0.2500000000000000  0.2500000000000000  0.9159999999999999
  0.7500000000000000  0.2500000000000000  0.9159999999999999
  0.2500000000000000  0.7500000000000000  0.9159999999999999
  0.7500000000000000  0.7500000000000000  0.9159999999999999
  0.1554200000000000  0.1554200000000000  0.0000000000000000
  0.6554200000000000  0.1554200000000000  0.0000000000000000
  0.1554200000000000  0.6554200000000000  0.0000000000000000
  0.6554200000000000  0.6554200000000000  0.0000000000000000
  0.1554200000000000  0.1554200000000000  0.5000000000000000
  0.6554200000000000  0.1554200000000000  0.5000000000000000
  0.1554200000000000  0.6554200000000000  0.5000000000000000
  0.6554200000000000  0.6554200000000000  0.5000000000000000
  0.4054200000000000  0.0945800000000000  0.2500000000000000
  0.9054200000000000  0.0945800000000000  0.2500000000000000
  0.4054200000000000  0.5945800000000000  0.2500000000000000
  0.9054200000000000  0.5945800000000000  0.2500000000000000
  0.4054200000000000  0.0945800000000000  0.7500000000000000
  0.9054200000000000  0.0945800000000000  0.7500000000000000
  0.4054200000000000  0.5945800000000000  0.7500000000000000
  0.9054200000000000  0.5945800000000000  0.7500000000000000
  0.0945800000000000  0.4054200000000000  0.2500000000000000
  0.5945800000000000  0.4054200000000000  0.2500000000000000
  0.0945800000000000  0.9054200000000000  0.2500000000000000
  0.5945800000000000  0.9054200000000000  0.2500000000000000
  0.0945800000000000  0.4054200000000000  0.7500000000000000
  0.5945800000000000  0.4054200000000000  0.7500000000000000
  0.0945800000000000  0.9054200000000000  0.7500000000000000
  0.5945800000000000  0.9054200000000000  0.7500000000000000
  0.3445800000000000  0.3445800000000000  0.0000000000000000
  0.8445800000000000  0.3445800000000000  0.0000000000000000
  0.3445800000000000  0.8445800000000000  0.0000000000000000
  0.8445800000000000  0.8445800000000000  0.0000000000000000
  0.3445800000000000  0.3445800000000000  0.5000000000000000
  0.8445800000000000  0.3445800000000000  0.5000000000000000
  0.3445800000000000  0.8445800000000000  0.5000000000000000
  0.8445800000000000  0.8445800000000000  0.5000000000000000
  0.1487650000000000  0.1487650000000000  0.1619950000000000
  0.6487650000000000  0.1487650000000000  0.1619950000000000
  0.1487650000000000  0.6487650000000000  0.1619950000000000
  0.6487650000000000  0.6487650000000000  0.1619950000000000
  0.1487650000000000  0.1487650000000000  0.6619950000000000
  0.6487650000000000  0.1487650000000000  0.6619950000000000
  0.1487650000000000  0.6487650000000000  0.6619950000000000
  0.6487650000000000  0.6487650000000000  0.6619950000000000
  0.3987650000000000  0.1012350000000000  0.0880050000000000
  0.8987650000000000  0.1012350000000000  0.0880050000000000
  0.3987650000000000  0.6012350000000000  0.0880050000000000
  0.8987650000000000  0.6012350000000000  0.0880050000000000
  0.3987650000000000  0.1012350000000000  0.5880050000000000
  0.8987650000000000  0.1012350000000000  0.5880050000000000
  0.3987650000000000  0.6012350000000000  0.5880050000000000
  0.8987650000000000  0.6012350000000000  0.5880050000000000
  0.1012350000000000  0.3987650000000000  0.0880050000000000
  0.6012350000000000  0.3987650000000000  0.0880050000000000
  0.1012350000000000  0.8987650000000000  0.0880050000000000
  0.6012350000000000  0.8987650000000000  0.0880050000000000
  0.1012350000000000  0.3987650000000000  0.5880050000000000
  0.6012350000000000  0.3987650000000000  0.5880050000000000
  0.1012350000000000  0.8987650000000000  0.5880050000000000
  0.6012350000000000  0.8987650000000000  0.5880050000000000
  0.3512350000000000  0.3512350000000000  0.1619950000000000
  0.8512350000000000  0.3512350000000000  0.1619950000000000
  0.3512350000000000  0.8512350000000000  0.1619950000000000
  0.8512350000000000  0.8512350000000000  0.1619950000000000
  0.3512350000000000  0.3512350000000000  0.6619950000000000
  0.8512350000000000  0.3512350000000000  0.6619950000000000
  0.3512350000000000  0.8512350000000000  0.6619950000000000
  0.8512350000000000  0.8512350000000000  0.6619950000000000
  0.3512350000000000  0.3512350000000000  0.3380050000000000
  0.8512350000000000  0.3512350000000000  0.3380050000000000
  0.3512350000000000  0.8512350000000000  0.3380050000000000
  0.8512350000000000  0.8512350000000000  0.3380050000000000
  0.3512350000000000  0.3512350000000000  0.8380050000000000
  0.8512350000000000  0.3512350000000000  0.8380050000000000
  0.3512350000000000  0.8512350000000000  0.8380050000000000
  0.8512350000000000  0.8512350000000000  0.8380050000000000
  0.1012350000000000  0.3987650000000000  0.4119950000000000
  0.6012350000000000  0.3987650000000000  0.4119950000000000
  0.1012350000000000  0.8987650000000000  0.4119950000000000
  0.6012350000000000  0.8987650000000000  0.4119950000000000
  0.1012350000000000  0.3987650000000000  0.9119950000000000
  0.6012350000000000  0.3987650000000000  0.9119950000000000
  0.1012350000000000  0.8987650000000000  0.9119950000000000
  0.6012350000000000  0.8987650000000000  0.9119950000000000
  0.3987650000000000  0.1012350000000000  0.4119950000000000
  0.8987650000000000  0.1012350000000000  0.4119950000000000
  0.3987650000000000  0.6012350000000000  0.4119950000000000
  0.8987650000000000  0.6012350000000000  0.4119950000000000
  0.3987650000000000  0.1012350000000000  0.9119950000000000
  0.8987650000000000  0.1012350000000000  0.9119950000000000
  0.3987650000000000  0.6012350000000000  0.9119950000000000
  0.8987650000000000  0.6012350000000000  0.9119950000000000
  0.1487650000000000  0.1487650000000000  0.3380050000000000
  0.6487650000000000  0.1487650000000000  0.3380050000000000
  0.1487650000000000  0.6487650000000000  0.3380050000000000
  0.6487650000000000  0.6487650000000000  0.3380050000000000
  0.1487650000000000  0.1487650000000000  0.8380050000000000
  0.6487650000000000  0.1487650000000000  0.8380050000000000
  0.1487650000000000  0.6487650000000000  0.8380050000000000
  0.6487650000000000  0.6487650000000000  0.8380050000000000
