Automatic mesh
0      ! auto k-point generation scheme
Gamma  ! Monkhorst-pack mesh or Gamma-centered mesh
5 5 4  ! dimensions
0 0 0
