ti2 ta4 o12
1.0
        5.6934270859         0.0000000000         0.0000000000
       -1.5584224362         5.4759868054         0.0000000000
       -2.4811180314         1.8735316502         6.7478484729
   Ti   Ta    O
    2    4   12
Direct
     0.346686037         0.653314045         0.347455007
     0.653314020         0.346686024         0.652544964 
     0.321072010         0.678927999         0.821485986
     0.678928063         0.321072020         0.178514002
     0.000000008         0.000000004         0.500000003
     0.000000000         0.000000000         0.000000000
     0.228908994         0.771090990         0.029554001
     0.567520055         0.432480021         0.358785973
     0.905244980         0.094755011         0.702768958
     0.432480046         0.567520079         0.641214032
     0.771090911         0.228909036         0.970445967
     0.094755009         0.905245091         0.297230977
     0.959690969         0.618592037         0.671461012
     0.299841997         0.299842019         0.000000000
     0.618592002         0.959690965         0.328539028
     0.381407993         0.040308993         0.671461012
     0.700158015         0.700158031         0.000000000
     0.040309020         0.381408051         0.328539028
