findsym-output
1.0
        4.8516998291         0.0000000000         0.0000000000
        0.0000000000         4.8516998291         0.0000000000
        0.0000000000         0.0000000000         9.0502004623
   Ti   Ta    O
    2   4     12
Direct
     0.000000000         0.000000000         0.000000000
     0.500000000         0.500000000         0.500000000
     0.000000000         0.000000000         0.331999975
    -0.000000000        -0.000000000         0.667999972
     0.500000000         0.500000000         0.832000028
     0.500000000         0.500000000         0.168000012
     0.310840009         0.310840009         0.000000000
     0.689159991         0.689159991         0.000000000
     0.189159991         0.810840009         0.500000000
     0.810840009         0.189159991         0.500000000
     0.297540004         0.297540004         0.323990000
     0.702459972         0.702459972         0.676010027
     0.702459972         0.702459972         0.323990000
     0.297540004         0.297540004         0.676010027
     0.202459996         0.797540028         0.823989973
     0.797540028         0.202459996         0.176010014
     0.797540028         0.202459996         0.823989973
     0.202459996         0.797540028         0.176010014

