mg1 o6 ta2
1.0
        9.2003002167         0.0000000000         0.0000000000
        0.0000000000         6.6735320091         0.0000000000
        0.0000000000         0.0000000000         6.6735320091
   Mg   Ta    O
    4    8   24
Cartesian
     0.000000000         0.000000000         0.000000000
     4.600150108         3.336766005         0.000000000
     0.000000000         3.336766005         3.336766005
     4.600150108         0.000000000         3.336766005
     3.053579569         0.000000000         0.000000000
     6.146720409         0.000000000         0.000000000
     7.653729916         3.336766005         0.000000000
     1.546570420         3.336766005         0.000000000
     3.053579569         3.336766005         3.336766005
     6.146720409         3.336766005         3.336766005
     7.653729916         0.000000000         3.336766005
     1.546570420         0.000000000         3.336766005
     0.000000000         5.392213821         3.336766005
     0.000000000         1.281318188         3.336766005
     4.600150108         0.000000000         5.392213821
     4.600150108         0.000000000         1.281318188
     0.000000000         2.055447817         0.000000000
     0.000000000         4.618083954         0.000000000
     4.600150108         3.336766005         2.055447817
     4.600150108         3.336766005         4.618083954
     2.971697092         1.982038975         0.000000000
     6.228602886         4.691493034         0.000000000
     2.971697092         4.691493034         0.000000000
     6.228602886         1.982038975         0.000000000
     7.571847439         3.336766005         1.982038975
     1.628453135         3.336766005         4.691493034
     7.571847439         3.336766005         4.691493034
     1.628453135         3.336766005         1.982038975
     2.971697092         5.318804741         3.336766005
     6.228602886         1.354726911         3.336766005
     2.971697092         1.354726911         3.336766005
     6.228602886         5.318804741         3.336766005
     7.571847439         0.000000000         5.318804741
     1.628453135         0.000000000         1.354726911
     7.571847439         0.000000000         1.354726911
     1.628453135         0.000000000         5.318804741
